002 002 004 006 004 003 003 005 006 004 004 004 007 009 010 009 004 007 011 012 009 007 012 012 015 009 007 002 002 002 002
002 002 003 004 004 003 004 004 003 004 005 003 004 010 009 011 012 006 009 005 008 009 011 017 010 008 005 002 001 002 002
002 002 002 002 003 002 002 002 003 003 003 004 004 009 009 009 011 009 010 008 008 008 009 008 007 007 005 003 001 002 002
001 002 001 001 001 001 002 002 003 003 004 003 005 008 008 009 010 011 011 008 006 007 010 007 012 007 006 003 001 001 002
001 001 001 001 001 001 001 003 003 003 002 003 004 007 010 007 007 007 011 011 006 010 010 007 006 005 005 006 004 002 001
001 001 002 002 002 002 001 002 002 001 001 002 003 004 008 006 006 006 009 011 011 007 011 014 007 008 006 006 006 003 002
001 002 004 003 002 003 002 002 001 001 001 001 002 004 005 007 004 003 006 010 008 010 017 014 009 007 005 007 010 007 005
002 002 008 005 004 004 004 001 001 000 000 001 002 004 004 005 003 003 004 006 008 006 014 012 009 008 010 008 012 010 004
001 001 004 004 005 004 003 001 000 000 000 001 001 004 013 003 003 001 002 004 005 009 010 012 009 009 008 007 009 008 005
000 001 001 001 002 002 003 001 000 001 001 002 002 004 006 003 002 002 003 003 002 004 004 008 006 010 007 008 009 014 011
000 000 000 000 000 002 001 001 001 001 002 003 003 002 003 002 002 002 003 002 001 002 003 007 006 007 008 008 011 011 010
000 000 000 000 001 000 001 001 001 001 002 003 002 004 001 001 001 002 003 002 002 002 002 005 005 006 007 011 012 011 011
000 000 000 000 000 000 000 000 001 001 002 004 003 002 002 002 001 001 002 002 002 002 002 003 003 007 009 009 010 011 011
000 000 000 001 001 001 001 001 001 001 001 003 002 002 000 001 001 001 001 002 003 003 002 002 003 004 007 006 006 009 009
001 002 002 001 002 002 004 005 001 000 001 003 001 001 001 001 001 001 001 001 002 003 002 002 005 006 007 009 008 010 010
006 004 001 001 001 002 002 003 001 001 002 001 001 001 001 001 001 001 000 001 001 002 001 002 005 005 009 011 012 011 010
010 002 000 001 000 000 001 002 001 002 003 002 002 001 000 001 001 001 000 000 000 000 001 001 002 004 005 010 014 012 012
005 002 000 000 001 000 000 000 001 001 002 003 002 001 001 001 001 001 001 001 001 000 001 001 003 004 005 010 012 013 015
002 001 000 000 001 000 000 000 000 001 001 002 004 002 001 001 001 001 001 001 001 001 002 002 003 004 006 006 011 013 019
001 001 000 000 000 000 000 000 000 000 001 002 005 004 002 002 001 001 002 002 002 001 002 003 003 005 004 007 009 014 012
001 001 001 000 000 000 001 001 000 001 002 011 013 005 003 004 002 002 003 006 003 002 003 005 003 006 004 007 009 014 012
000 001 001 000 000 000 001 001 001 001 003 013 013 005 005 008 003 003 004 006 004 003 004 005 006 008 004 008 009 013 013
001 001 002 000 000 001 002 001 001 002 009 016 013 006 009 018 006 003 004 006 006 003 007 005 023 016 004 008 008 011 012
001 001 000 000 000 002 002 001 005 006 011 024 017 007 014 016 006 004 004 005 006 003 007 009 038 035 008 -99 009 010 009
001 001 000 000 000 002 002 001 004 006 009 035 024 017 012 008 005 004 004 004 005 003 006 016 035 045 013 -99 010 011 008
001 000 000 000 000 001 001 001 003 007 017 029 021 016 009 004 003 004 003 004 003 001 004 017 030 037 030 025 011 009 013
001 001 001 000 000 000 000 001 003 005 009 009 010 007 003 004 003 005 004 003 002 001 001 019 029 021 042 028 010 024 030
002 001 001 000 000 000 000 000 005 004 007 003 004 001 002 006 013 009 005 004 002 001 001 007 009 012 011 017 017 026 025
000 001 001 000 000 001 000 002 006 006 007 003 004 002 003 006 010 009 007 009 004 001 -99 005 005 005 006 013 017 026 019
000 000 001 000 000 003 004 006 011 007 006 004 004 003 002 004 007 007 005 007 004 001 -99 002 001 002 005 010 011 017 018
000 000 000 000 001 005 006 006 007 009 005 006 003 002 002 002 003 003 003 006 008 002 006 002 001 001 002 006 008 011 013
001 001 000 000 000 001 002 004 007 008 003 005 003 002 003 002 002 002 002 003 004 003 003 001 001 001 001 002 003 003 004
001 001 000 000 000 001 002 002 005 003 002 004 002 003 005 005 003 001 001 003 002 002 002 001 001 000 000 001 003 002 002
001 001 000 000 000 000 000 001 001 001 003 002 003 005 005 005 004 002 003 002 001 003 003 002 001 001 000 001 004 004 003
001 000 001 001 001 000 000 000 000 001 005 004 004 005 004 004 005 007 005 003 001 002 002 002 001 001 001 001 004 006 005
000 001 001 001 000 001 000 001 002 003 002 000 001 003 003 010 013 014 008 003 001 002 001 002 001 001 001 003 003 010 009
000 001 001 001 001 001 001 001 005 007 005 002 001 001 002 013 020 011 005 002 002 002 001 000 000 000 001 002 003 006 006
001 001 001 000 000 000 002 003 007 007 005 003 001 001 002 010 014 010 003 005 006 008 002 001 000 000 001 001 003 006 005
002 001 000 000 000 001 003 003 006 008 010 010 003 001 001 004 005 004 006 016 022 011 006 004 001 000 000 001 003 009 009
000 000 000 000 000 000 000 003 006 009 010 010 004 002 002 004 003 002 003 014 032 046 028 005 002 001 000 001 005 015 012
000 000 000 000 000 000 000 002 005 006 009 008 006 005 004 002 001 001 005 012 046 052 025 021 027 013 002 002 008 012 009
000 000 000 000 000 000 001 002 004 004 006 008 004 005 002 000 000 001 002 008 035 047 034 037 018 014 004 004 006 005 009
002 001 000 000 000 000 001 001 001 002 003 003 002 001 000 000 000 001 000 007 024 029 041 053 036 018 006 003 002 001 006
003 002 001 000 000 000 000 001 001 002 001 002 001 001 000 000 000 000 000 020 017 022 037 058 033 023 011 005 002 003 004
003 003 002 001 000 000 000 000 001 001 001 003 001 000 000 000 000 000 001 006 008 024 048 071 030 034 021 008 009 008 006
002 006 003 002 001 000 000 000 000 000 001 001 000 000 000 000 000 000 000 002 005 018 017 035 038 052 028 014 019 026 005
001 005 003 002 000 001 000 000 000 000 000 000 000 000 000 000 000 000 000 001 004 006 006 018 050 041 024 017 016 023 008
000 001 002 002 001 002 000 000 000 000 000 000 000 000 000 000 000 000 000 000 000 001 002 009 023 028 021 009 010 021 010
000 000 001 001 001 002 002 000 000 000 000 000 000 000 -99 -99 000 000 000 000 000 000 000 003 010 021 008 005 007 013 007
000 000 000 001 002 003 002 000 000 000 000 000 -99 000 -99 000 000 000 000 000 000 000 000 000 003 013 006 002 006 005 005
000 000 000 001 003 003 001 000 000 000 000 000 000 -99 000 000 000 000 000 000 000 000 000 000 003 002 001 000 002 003 001
000 000 000 000 001 001 000 000 000 000 000 000 000 000 000 002 001 000 000 000 000 000 000 000 000 000 000 000 000 000 000
000 000 000 000 000 000 000 000 000 000 001 000 000 000 001 002 001 000 000 000 000 -99 -99 -99 000 000 000 000 000 000 000
000 000 000 000 000 000 000 000 000 000 001 000 000 000 001 002 002 001 000 000 000 000 -99 000 000 -99 000 000 -99 -99 000
000 000 000 000 000 000 000 000 000 000 000 000 000 000 000 001 002 001 001 000 000 000 000 -99 -99 -99 -99 -99 -99 -99 -99
